17280
17709
17709
18477
18480
18558
18570
18570
18579
18579
18579
18579
18579
18579
18579
18579
18579
18579
18585
18585
18585
18585
18585
18585
18585
18585
18585
18585
18585
18585
18585
18585
18585
18585
18585
18585
18585
18585
18585
18585
18585
18585
18585
18585
18585
18585
18585
18585
18588
18588
18588
18588
18588
18588
18588
18588
18588
18588
18588
18588
18588
18588
18588
18588
18588
18588
18588
18588
18588
18588
18588
18588
18588
18588
18588
18588
18588
18588
18588
18588
18588
18588
18588
18588
18588
18588
18588
18588
18588
18588
18588
18588
18588
18588
18588
18588
18588
18588
18588
